NAME: GRASP_11_6
TYPE: TSP
COMMENT: line_11_6
DIMENSION: 11
EDGE_WEIGHT_TYPE: EUC_2D
NODE_COORD_SECTION
1 0.0 81.0
2 0.0 73.0
3 0.0 51.0
4 0.0 71.0
5 0.0 38.0
6 0.0 30.0
7 0.0 65.0
8 0.0 41.0
9 0.0 31.0
10 0.0 5.0
11 0.0 99.0
